param PC :
		1	2	3:=
	1	0.8	0.1	0.05
	2	0.45	0.30	0.20
	3	0.3	0.4	0.25
;
param PG :
		1	2	3 :=
	1	0.6	0.25 0.1
	2	0.3 0.20 0.15
	3	0.4	0.35 0.20
;
param CostoC :=
	1	250
	2	120
	3	200
;
param Presu = 50000;
param Disp :=
	2	300
	3	700
;
param BA = 10;
param DEM :=
	1	60
	2	70
;
